NAME : single
TYPE : ATSP
DIMENSION : 6
EDGE_WEIGHT_TYPE : EXPLICIT
EDGE_WEIGHT_FORMAT : FULL_MATRIX
EDGE_WEIGHT_SECTION
0 50330 50252 50343 247 141 
0 0 329 125 50000 50000 
0 329 0 345 50000 50000 
0 125 345 0 50000 50000 
0 50000 50000 50000 0 89 
0 50000 50000 50000 89 0 
EOF